c WARNING: for repeatability, setting FPU to use double precision
d VARIABLES            225576       
d CONSTRAINTS          836244       
c ============================[ Problem Statistics ]=============================
c |                                                                             |
c |  Number of variables:        225576                                         |
c |  Number of clauses:          836244                                         |
c |  Parse time:                   0.14 s                                       |
c |                                                                             |
c ============================[ Search Statistics ]==============================
c | Conflicts |          ORIGINAL         |          LEARNT          | Progress |
c |           |    Vars  Clauses Literals |    Limit  Clauses Lit/Cl |          |
c ===============================================================================
c |       100 |  186943   736614  1848651 |   270091       99     18 | 17.126 % |
c |       250 |  186937   736614  1848651 |   297100      243     10 | 17.129 % |
c |       475 |  186937   736586  1848581 |   326811      468     24 | 17.129 % |
c |       812 |  186937   736586  1848581 |   359492      805     17 | 17.129 % |
c |      1318 |  186937   736586  1848581 |   395441     1311     50 | 17.129 % |
c |      2077 |  186937   736586  1848581 |   434985     2070     37 | 17.129 % |
c |      3216 |  186937   736586  1848581 |   478484     3209     30 | 17.129 % |
c |      4924 |  186937   736586  1848581 |   526332     4917     27 | 17.129 % |
c |      7486 |  186937   736586  1848581 |   578965     7479     45 | 17.129 % |
c |     11330 |  186937   736586  1848581 |   636862    11323     56 | 17.129 % |
c |     17096 |  186937   736586  1848581 |   700548    17089     72 | 17.129 % |
c |     25745 |  186937   736586  1848581 |   770603    25738     89 | 17.129 % |
c |     38719 |  186937   736586  1848581 |   847663    38712    126 | 17.129 % |
c |     58180 |  186937   736586  1848581 |   932430    58173    146 | 17.129 % |
c |     87372 |  186931   736562  1848521 |  1025673    87359    147 | 17.132 % |
c |    131161 |  186930   736558  1848511 |  1128240   131147    145 | 17.132 % |
c |    196845 |  186930   736558  1848511 |  1241064   196831    149 | 17.132 % |
c |    295371 |  186930   736558  1848511 |  1365170   295357    157 | 17.132 % |
c |    443160 |  186930   736558  1848511 |  1501688   443146    166 | 17.132 % |
c |    664843 |  186930   736558  1848511 |  1651856   664829    166 | 17.132 % |
c |    997368 |  186930   736558  1848511 |  1817042   997354    168 | 17.132 % |
c |   1496156 |  186930   736558  1848511 |  1998746  1496142    171 | 17.132 % |
c |   2244338 |  186930   736558  1848511 |  2198621   243760    185 | 17.132 % |
c ===============================================================================
c restarts              : 4688
c conflicts             : 2714471        (1514 /sec)
c decisions             : 7192692        (0.00 % random) (4012 /sec)
c propagations          : 5452730201     (3041182 /sec)
c conflict literals     : 468872573      (29.70 % deleted)
d RESTARTS             4688
d FAILURES             2714471      
d NODES                7192692      
d BACKTRACKS           7192692      
d PROPAGATIONS         5452730201   
d NOGOODSIZE           172.73 
d MEMORY               1667.00 
d TIME                 1792.96 

s UNKNOWN
